c Sudoku solution
p cnf 729 0
119 0
126 0
272 0
314 0
335 0
349 0
387 0
481 0
492 0
515 0
568 0
579 0
583 0
627 0
653 0
698 0
745 0
763 0
771 0
841 0
859 0
929 0
825 0
932 0
911 0
612 0
322 0
958 0
378 0
393 0
973 0
644 0
366 0
351 0
661 0
469 0
455 0
639 0
254 0
175 0
184 0
191 0
265 0
676 0
685 0
986 0
995 0
964 0
947 0
756 0
862 0
782 0
888 0
799 0
446 0
536 0
521 0
477 0
594 0
816 0
833 0
231 0
217 0
413 0
718 0
737 0
724 0
223 0
138 0
143 0
248 0
428 0
434 0
542 0
557 0
152 0
167 0
874 0
897 0
289 0
296 0
